NAME : amz2429.80153_78653.tour
COMMENT : Cost = 80153_78653
COMMENT : Found by LKH-AMZ [Keld Helsgaun] Sun May 11 13:55:36 2025
COMMENT : TW viol.: 0 #: 0
TYPE : TOUR
DIMENSION : 163
TOUR_SECTION
89
131
104
31
162
40
53
57
112
19
7
66
76
60
24
8
1
154
147
145
25
46
111
43
88
123
33
4
153
41
93
74
115
64
95
135
122
12
94
91
80
63
27
163
150
107
16
134
140
18
2
98
9
159
62
148
119
83
45
17
96
146
92
157
156
99
6
117
15
20
102
152
106
30
50
70
51
87
5
113
126
49
75
59
142
160
137
38
84
86
138
56
110
3
108
48
36
97
35
114
10
149
101
23
54
22
58
78
103
116
136
42
71
77
79
105
52
124
81
109
141
121
133
120
14
28
34
144
139
67
155
128
127
26
72
61
82
32
129
143
69
85
158
44
39
55
130
125
11
132
161
13
65
47
73
118
151
68
21
37
90
29
100
-1
EOF
